--- Job demowoaz_LiST_4_29_2020.gms Start 05/26/20 18:41:04 30.1.0 re01a340 WEX-WEI x86 64bit/MS Windows
--- GAMS Parameters defined
    Input Z:\home\lordflaron\Documents\minimod\Optimization Work\demewoz_lives_saved\data_files\justin_data\demowoaz_LiST_4_29_2020.gms
    PageSize 0
    ScrDir Z:\home\lordflaron\Documents\minimod\Optimization Work\demewoz_lives_saved\data_files\justin_data\225d\
    SysDir C:\GAMS\win64\30.1\
    LogOption 3
    ErrMsg 1
    ErrorLog 99
    IDE 1
    LstTitleLeftAligned 1
GAMS 30.1.0   Copyright (C) 1987-2020 GAMS Development. All rights reserved
Licensee: Small MUD - 5 User License                     G190305:1227AO-WIN
          University of California, Davis, Agricultural and Resource DC9668
--- Starting compilation
--- demowoaz_LiST_4_29_2020.gms(40) 3 Mb
--- GDXin=Z:\home\lordflaron\Documents\minimod\Optimization Work\demewoz_lives_saved\data_files\justin_data\Cameroon_deathsaverted.gdx
--- demowoaz_LiST_4_29_2020.gms(47) 3 Mb
--- GDXin=Z:\home\lordflaron\Documents\minimod\Optimization Work\demewoz_lives_saved\data_files\justin_data\Cameroon_deathsavertedhigh.gdx
--- demowoaz_LiST_4_29_2020.gms(54) 3 Mb
--- GDXin=Z:\home\lordflaron\Documents\minimod\Optimization Work\demewoz_lives_saved\data_files\justin_data\Cameroon_deathsavertedcost.gdx
--- demowoaz_LiST_4_29_2020.gms(61) 3 Mb
--- GDXin=Z:\home\lordflaron\Documents\minimod\Optimization Work\demewoz_lives_saved\data_files\justin_data\Cameroon_folate.gdx
--- demowoaz_LiST_4_29_2020.gms(441) 3 Mb
--- Starting execution: elapsed 0:00:00.023
--- demowoaz_LiST_4_29_2020.gms(341) 4 Mb
--- Generating MINLP model nutrition
--- demowoaz_LiST_4_29_2020.gms(342) 8 Mb
---   4,137 rows  6,752 columns  18,093 non-zeroes
---   0 nl-code  0 nl-non-zeroes
---   3,300 discrete-columns
--- demowoaz_LiST_4_29_2020.gms(342) 6 Mb
--- Executing BONMIN: elapsed 0:00:00.106
COIN-OR Bonmin   30.1.0 re01a340 Released Jan 10, 2020 WEI x86 64bit/MS Window
COIN-OR Bonmin (Bonmin Library 1.8)
written by P. Bonami.
******************************************************************************
This program contains Ipopt, a library for large-scale nonlinear optimization.
 Ipopt is released as open source code under the Eclipse Public License (EPL).
         For more information visit http://projects.coin-or.org/Ipopt
******************************************************************************
This is Ipopt version 3.12, running with linear solver mumps.
Number of nonzeros in equality constraint Jacobian...:    13141
Number of nonzeros in inequality constraint Jacobian.:     3301
Number of nonzeros in Lagrangian Hessian.............:        0
Total number of variables............................:     6751
                     variables with only lower bounds:        0
                variables with lower and upper bounds:     3300
                     variables with only upper bounds:        0
Total number of equality constraints.................:     4075
Total number of inequality constraints...............:       61
        inequality constraints with only lower bounds:        1
   inequality constraints with lower and upper bounds:        0
        inequality constraints with only upper bounds:       60
iter    objective    inf_pr   inf_du lg(mu)  ||d||  lg(rg) alpha_du alpha_pr  ls
   0  0.0000000e+00 3.18e+04 1.00e+00   0.0 0.00e+00    -  0.00e+00 0.00e+00   0
MUMPS returned INFO(1) = -9 and requires more memory, reallocating.  Attempt 1
  Increasing icntl[13] from 1000 to 2000.
MUMPS returned INFO(1) = -9 and requires more memory, reallocating.  Attempt 2
  Increasing icntl[13] from 2000 to 4000.
   1 -1.9376970e+06 3.18e+04 1.01e+00  -0.3 1.81e+10    -  8.99e-07 1.06e-06f  1
   4 -5.2153257e+06 3.18e+04 1.97e+00  -0.3 1.07e+10    -  1.13e-06 1.23e-06f  1
   9 -8.2643696e+06 3.18e+04 2.21e+00  -0.3 1.40e+10    -  2.05e-06 2.24e-06f  1
  15 -8.8454074e+06 3.18e+04 1.74e+01  -0.3 5.87e+09    -  6.06e-06 6.01e-07f  1
  21 -9.5812240e+06 3.19e+04 1.25e+04  -0.2 4.79e+07    -  5.94e-03 9.52e-04f  1
  27 -8.4104557e+06 3.02e+04 8.82e+04   0.1 8.46e+06    -  3.48e-02 2.33e-04h  1
  32r-1.6837040e+06 2.02e+04 1.00e+03   4.3 0.00e+00    -  0.00e+00 3.27e-06R  5
MUMPS returned INFO(1) = -9 and requires more memory, reallocating.  Attempt 1
  Increasing icntl[13] from 4000 to 8000.
  36 -1.1198127e+07 1.21e+05 1.01e+00  -0.3 8.66e+10    -  9.68e-07 1.12e-06f  1
  38 -2.2932006e+07 1.21e+05 1.56e+00  -0.3 5.58e+10    -  1.26e-06 1.47e-06f  1
iter    objective    inf_pr   inf_du lg(mu)  ||d||  lg(rg) alpha_du alpha_pr  ls
  40 -3.2401200e+07 1.21e+05 2.09e+00  -0.3 3.36e+10    -  3.32e-06 3.08e-06f  1
  44 -3.8651047e+07 1.21e+05 1.26e+01  -0.3 4.72e+09    -  1.59e-05 6.73e-06f  1
  49 -4.0008701e+07 1.21e+05 6.60e+01  -0.3 1.96e+09    -  4.09e-05 1.09e-05f  1
  55 -4.0672277e+07 1.21e+05 1.10e+03  -0.3 7.39e+07    -  6.80e-04 5.92e-04f  1
  61 -3.9738826e+07 1.18e+05 5.66e+04  -0.3 5.48e+06    -  3.65e-02 1.03e-02h  1
  67 -3.6636380e+07 1.10e+05 2.36e+05  -0.2 5.62e+06    -  1.14e-02 1.70e-04h  1
  73 -3.6419719e+07 1.09e+05 2.36e+05  -0.2 1.18e+06    -  6.45e-04 4.89e-04h  1
  78 -3.6303628e+07 1.09e+05 2.34e+05  -0.2 1.64e+07    -  5.96e-04 2.18e-04h  1

